results_rootrelaxation/bin012_080_000.srr.sol
solution status: optimal solution found
objective value:                     17.9007936507937
_var778_                            0.162698412698412 	(obj:3)
_var801_                           0.0555555555555535 	(obj:1)
_var804_                            0.329365079365078 	(obj:2)
_var806_                           0.0793650793650816 	(obj:2)
_var816_                            0.210317460317461 	(obj:1)
_var828_                            0.103174603174604 	(obj:2)
_var830_                            0.527777777777778 	(obj:0)
_var832_                          0.00396825396825029 	(obj:1)
_var841_                            0.281746031746032 	(obj:1)
_var846_                            0.242063492063491 	(obj:1)
_var848_                            0.123015873015871 	(obj:3)
_var854_                            0.376984126984129 	(obj:2)
_var857_                            0.757936507936509 	(obj:0)
_var859_                            0.198412698412701 	(obj:2)
_var864_                            0.472222222222222 	(obj:1)
_var865_                           0.0595238095238072 	(obj:3)
_var870_                            0.242063492063493 	(obj:1)
_var871_                            0.126984126984125 	(obj:1)
_var876_                            0.134920634920639 	(obj:3)
_var877_                           0.0634920634920604 	(obj:2)
_var879_                           0.0992063492063472 	(obj:1)
_var894_                            0.242063492063491 	(obj:2)
_var897_                            0.563492063492065 	(obj:2)
_var899_                            0.531746031746032 	(obj:1)
_var903_                             0.26984126984127 	(obj:1)
_var904_                              0.1984126984127 	(obj:1)
_var905_                            0.170634920634916 	(obj:3)
_var906_                           0.0595238095238066 	(obj:2)
_var907_                           0.0555555555555562 	(obj:2)
_var910_                            0.404761904761905 	(obj:2)
_var911_                           0.0436507936507906 	(obj:2)
_var914_                           0.0396825396825424 	(obj:3)
_var918_                            0.218253968253972 	(obj:1)
_var921_                            0.277777777777779 	(obj:3)
_var925_                            0.158730158730161 	(obj:1)
_var928_                            0.214285714285712 	(obj:3)
_var934_                            0.222222222222227 	(obj:2)
_var936_                            0.337301587301589 	(obj:2)
_var937_                            0.277777777777781 	(obj:3)
_var942_                            0.186507936507936 	(obj:2)
_var944_                           0.0793650793650797 	(obj:4)
_var947_                           0.0714285714285716 	(obj:2)
_var948_                            0.182539682539685 	(obj:2)
_var950_                            0.329365079365076 	(obj:1)
_var952_                            0.130952380952383 	(obj:2)
_var955_                            0.059523809523811 	(obj:2)
_var957_                            0.154761904761904 	(obj:1)
_var960_                           0.0833333333333307 	(obj:2)
_var965_                            0.158730158730159 	(obj:1)
_var966_                            0.027777777777781 	(obj:2)
_var967_                           0.0912698412698404 	(obj:3)
_var968_                           0.0793650793650838 	(obj:2)
_var969_                           0.0158730158730178 	(obj:3)
_var970_                            0.150793650793648 	(obj:4)
_var972_                           0.0595238095238066 	(obj:3)
_var974_                            0.134920634920637 	(obj:3)
_var975_                           0.0317460317460286 	(obj:1)
_var976_                           0.0277777777777784 	(obj:3)
_var977_                          0.00793650793650419 	(obj:3)
